Minimize
x16 + x18 + x20 + x22 + x28 + x30 + x32 + x34 + x40 + x42 + x44 + x46 + x52 + x54 + x56 + x58 + x64 + x66 + x68 + x70 + x76 + x78 + x80 + x82 + x88 + x90 + x92 + x94 + x100 + x102 + x104 + x106 + x112 + x114 + x116 + x118 + x124 + x126 + x128 + x130 + 
Subject To
\BRANCH
x0 + x16 + x17 - 2 d0 >= 0
d0 - x0 >= 0
d0 - x16 >= 0
d0 - x17 >= 0
\BRANCH
x1 + x18 + x19 - 2 d1 >= 0
d1 - x1 >= 0
d1 - x18 >= 0
d1 - x19 >= 0
\BRANCH
x2 + x20 + x21 - 2 d2 >= 0
d2 - x2 >= 0
d2 - x20 >= 0
d2 - x21 >= 0
\BRANCH
x3 + x22 + x23 - 2 d3 >= 0
d3 - x3 >= 0
d3 - x22 >= 0
d3 - x23 >= 0
\Clefia S0
\M_0
x16 + x18 + x20 + x22 + x24 + x25 + x26 + x27 - 5 d4 >= 0
d4 - x16 >= 0
d4 - x18 >= 0
d4 - x20 >= 0
d4 - x22 >= 0
d4 - x24 >= 0
d4 - x25 >= 0
d4 - x26 >= 0
d4 - x27 >= 0
\XOR
x4 - x24 = 0
\XOR
x5 - x25 = 0
\XOR
x6 - x26 = 0
\XOR
x7 - x27 = 0
\BRANCH
x8 + x28 + x29 - 2 d5 >= 0
d5 - x8 >= 0
d5 - x28 >= 0
d5 - x29 >= 0
\BRANCH
x9 + x30 + x31 - 2 d6 >= 0
d6 - x9 >= 0
d6 - x30 >= 0
d6 - x31 >= 0
\BRANCH
x10 + x32 + x33 - 2 d7 >= 0
d7 - x10 >= 0
d7 - x32 >= 0
d7 - x33 >= 0
\BRANCH
x11 + x34 + x35 - 2 d8 >= 0
d8 - x11 >= 0
d8 - x34 >= 0
d8 - x35 >= 0
\Clefia S1
\M_1
x28 + x30 + x32 + x34 + x36 + x37 + x38 + x39 - 5 d9 >= 0
d9 - x28 >= 0
d9 - x30 >= 0
d9 - x32 >= 0
d9 - x34 >= 0
d9 - x36 >= 0
d9 - x37 >= 0
d9 - x38 >= 0
d9 - x39 >= 0
\XOR
x12 - x36 = 0
\XOR
x13 - x37 = 0
\XOR
x14 - x38 = 0
\XOR
x15 - x39 = 0
\Identity
\Identity
\Identity
\Identity
\Identity
\Identity
\Identity
\Identity
\Identity
\Identity
\Identity
\Identity
\Identity
\Identity
\Identity
\Identity
\BRANCH
x4 + x40 + x41 - 2 d10 >= 0
d10 - x4 >= 0
d10 - x40 >= 0
d10 - x41 >= 0
\BRANCH
x5 + x42 + x43 - 2 d11 >= 0
d11 - x5 >= 0
d11 - x42 >= 0
d11 - x43 >= 0
\BRANCH
x6 + x44 + x45 - 2 d12 >= 0
d12 - x6 >= 0
d12 - x44 >= 0
d12 - x45 >= 0
\BRANCH
x7 + x46 + x47 - 2 d13 >= 0
d13 - x7 >= 0
d13 - x46 >= 0
d13 - x47 >= 0
\Clefia S0
\M_0
x40 + x42 + x44 + x46 + x48 + x49 + x50 + x51 - 5 d14 >= 0
d14 - x40 >= 0
d14 - x42 >= 0
d14 - x44 >= 0
d14 - x46 >= 0
d14 - x48 >= 0
d14 - x49 >= 0
d14 - x50 >= 0
d14 - x51 >= 0
\XOR
x29 - x48 = 0
\XOR
x31 - x49 = 0
\XOR
x33 - x50 = 0
\XOR
x35 - x51 = 0
\BRANCH
x12 + x52 + x53 - 2 d15 >= 0
d15 - x12 >= 0
d15 - x52 >= 0
d15 - x53 >= 0
\BRANCH
x13 + x54 + x55 - 2 d16 >= 0
d16 - x13 >= 0
d16 - x54 >= 0
d16 - x55 >= 0
\BRANCH
x14 + x56 + x57 - 2 d17 >= 0
d17 - x14 >= 0
d17 - x56 >= 0
d17 - x57 >= 0
\BRANCH
x15 + x58 + x59 - 2 d18 >= 0
d18 - x15 >= 0
d18 - x58 >= 0
d18 - x59 >= 0
\Clefia S1
\M_1
x52 + x54 + x56 + x58 + x60 + x61 + x62 + x63 - 5 d19 >= 0
d19 - x52 >= 0
d19 - x54 >= 0
d19 - x56 >= 0
d19 - x58 >= 0
d19 - x60 >= 0
d19 - x61 >= 0
d19 - x62 >= 0
d19 - x63 >= 0
\XOR
x17 - x60 = 0
\XOR
x19 - x61 = 0
\XOR
x21 - x62 = 0
\XOR
x23 - x63 = 0
\Identity
\Identity
\Identity
\Identity
\Identity
\Identity
\Identity
\Identity
\Identity
\Identity
\Identity
\Identity
\Identity
\Identity
\Identity
\Identity
\BRANCH
x29 + x64 + x65 - 2 d20 >= 0
d20 - x29 >= 0
d20 - x64 >= 0
d20 - x65 >= 0
\BRANCH
x31 + x66 + x67 - 2 d21 >= 0
d21 - x31 >= 0
d21 - x66 >= 0
d21 - x67 >= 0
\BRANCH
x33 + x68 + x69 - 2 d22 >= 0
d22 - x33 >= 0
d22 - x68 >= 0
d22 - x69 >= 0
\BRANCH
x35 + x70 + x71 - 2 d23 >= 0
d23 - x35 >= 0
d23 - x70 >= 0
d23 - x71 >= 0
\Clefia S0
\M_0
x64 + x66 + x68 + x70 + x72 + x73 + x74 + x75 - 5 d24 >= 0
d24 - x64 >= 0
d24 - x66 >= 0
d24 - x68 >= 0
d24 - x70 >= 0
d24 - x72 >= 0
d24 - x73 >= 0
d24 - x74 >= 0
d24 - x75 >= 0
\XOR
x53 - x72 = 0
\XOR
x55 - x73 = 0
\XOR
x57 - x74 = 0
\XOR
x59 - x75 = 0
\BRANCH
x17 + x76 + x77 - 2 d25 >= 0
d25 - x17 >= 0
d25 - x76 >= 0
d25 - x77 >= 0
\BRANCH
x19 + x78 + x79 - 2 d26 >= 0
d26 - x19 >= 0
d26 - x78 >= 0
d26 - x79 >= 0
\BRANCH
x21 + x80 + x81 - 2 d27 >= 0
d27 - x21 >= 0
d27 - x80 >= 0
d27 - x81 >= 0
\BRANCH
x23 + x82 + x83 - 2 d28 >= 0
d28 - x23 >= 0
d28 - x82 >= 0
d28 - x83 >= 0
\Clefia S1
\M_1
x76 + x78 + x80 + x82 + x84 + x85 + x86 + x87 - 5 d29 >= 0
d29 - x76 >= 0
d29 - x78 >= 0
d29 - x80 >= 0
d29 - x82 >= 0
d29 - x84 >= 0
d29 - x85 >= 0
d29 - x86 >= 0
d29 - x87 >= 0
\XOR
x41 - x84 = 0
\XOR
x43 - x85 = 0
\XOR
x45 - x86 = 0
\XOR
x47 - x87 = 0
\Identity
\Identity
\Identity
\Identity
\Identity
\Identity
\Identity
\Identity
\Identity
\Identity
\Identity
\Identity
\Identity
\Identity
\Identity
\Identity
\BRANCH
x53 + x88 + x89 - 2 d30 >= 0
d30 - x53 >= 0
d30 - x88 >= 0
d30 - x89 >= 0
\BRANCH
x55 + x90 + x91 - 2 d31 >= 0
d31 - x55 >= 0
d31 - x90 >= 0
d31 - x91 >= 0
\BRANCH
x57 + x92 + x93 - 2 d32 >= 0
d32 - x57 >= 0
d32 - x92 >= 0
d32 - x93 >= 0
\BRANCH
x59 + x94 + x95 - 2 d33 >= 0
d33 - x59 >= 0
d33 - x94 >= 0
d33 - x95 >= 0
\Clefia S0
\M_0
x88 + x90 + x92 + x94 + x96 + x97 + x98 + x99 - 5 d34 >= 0
d34 - x88 >= 0
d34 - x90 >= 0
d34 - x92 >= 0
d34 - x94 >= 0
d34 - x96 >= 0
d34 - x97 >= 0
d34 - x98 >= 0
d34 - x99 >= 0
\XOR
x77 - x96 = 0
\XOR
x79 - x97 = 0
\XOR
x81 - x98 = 0
\XOR
x83 - x99 = 0
\BRANCH
x41 + x100 + x101 - 2 d35 >= 0
d35 - x41 >= 0
d35 - x100 >= 0
d35 - x101 >= 0
\BRANCH
x43 + x102 + x103 - 2 d36 >= 0
d36 - x43 >= 0
d36 - x102 >= 0
d36 - x103 >= 0
\BRANCH
x45 + x104 + x105 - 2 d37 >= 0
d37 - x45 >= 0
d37 - x104 >= 0
d37 - x105 >= 0
\BRANCH
x47 + x106 + x107 - 2 d38 >= 0
d38 - x47 >= 0
d38 - x106 >= 0
d38 - x107 >= 0
\Clefia S1
\M_1
x100 + x102 + x104 + x106 + x108 + x109 + x110 + x111 - 5 d39 >= 0
d39 - x100 >= 0
d39 - x102 >= 0
d39 - x104 >= 0
d39 - x106 >= 0
d39 - x108 >= 0
d39 - x109 >= 0
d39 - x110 >= 0
d39 - x111 >= 0
\XOR
x65 - x108 = 0
\XOR
x67 - x109 = 0
\XOR
x69 - x110 = 0
\XOR
x71 - x111 = 0
\Identity
\Identity
\Identity
\Identity
\Identity
\Identity
\Identity
\Identity
\Identity
\Identity
\Identity
\Identity
\Identity
\Identity
\Identity
\Identity
\BRANCH
x77 + x112 + x113 - 2 d40 >= 0
d40 - x77 >= 0
d40 - x112 >= 0
d40 - x113 >= 0
\BRANCH
x79 + x114 + x115 - 2 d41 >= 0
d41 - x79 >= 0
d41 - x114 >= 0
d41 - x115 >= 0
\BRANCH
x81 + x116 + x117 - 2 d42 >= 0
d42 - x81 >= 0
d42 - x116 >= 0
d42 - x117 >= 0
\BRANCH
x83 + x118 + x119 - 2 d43 >= 0
d43 - x83 >= 0
d43 - x118 >= 0
d43 - x119 >= 0
\Clefia S0
\M_0
x112 + x114 + x116 + x118 + x120 + x121 + x122 + x123 - 5 d44 >= 0
d44 - x112 >= 0
d44 - x114 >= 0
d44 - x116 >= 0
d44 - x118 >= 0
d44 - x120 >= 0
d44 - x121 >= 0
d44 - x122 >= 0
d44 - x123 >= 0
\XOR
x101 - x120 = 0
\XOR
x103 - x121 = 0
\XOR
x105 - x122 = 0
\XOR
x107 - x123 = 0
\BRANCH
x65 + x124 + x125 - 2 d45 >= 0
d45 - x65 >= 0
d45 - x124 >= 0
d45 - x125 >= 0
\BRANCH
x67 + x126 + x127 - 2 d46 >= 0
d46 - x67 >= 0
d46 - x126 >= 0
d46 - x127 >= 0
\BRANCH
x69 + x128 + x129 - 2 d47 >= 0
d47 - x69 >= 0
d47 - x128 >= 0
d47 - x129 >= 0
\BRANCH
x71 + x130 + x131 - 2 d48 >= 0
d48 - x71 >= 0
d48 - x130 >= 0
d48 - x131 >= 0
\Clefia S1
\M_1
x124 + x126 + x128 + x130 + x132 + x133 + x134 + x135 - 5 d49 >= 0
d49 - x124 >= 0
d49 - x126 >= 0
d49 - x128 >= 0
d49 - x130 >= 0
d49 - x132 >= 0
d49 - x133 >= 0
d49 - x134 >= 0
d49 - x135 >= 0
\XOR
x89 - x132 = 0
\XOR
x91 - x133 = 0
\XOR
x93 - x134 = 0
\XOR
x95 - x135 = 0
\Identity
\Identity
\Identity
\Identity
\Identity
\Identity
\Identity
\Identity
\Identity
\Identity
\Identity
\Identity
\Identity
\Identity
\Identity
\Identity
\Identity
\Identity
\Identity
\Identity
\Identity
\Identity
\Identity
\Identity
\Identity
\Identity
\Identity
\Identity
\Identity
\Identity
\Identity
\Identity
x0 + x1 + x2 + x3 + x4 + x5 + x6 + x7 + x8 + x9 + x10 + x11 + x12 + x13 + x14 + x15 >= 1

Binary
d0
d1
d2
d3
d4
d5
d6
d7
d8
d9
d10
d11
d12
d13
d14
d15
d16
d17
d18
d19
d20
d21
d22
d23
d24
d25
d26
d27
d28
d29
d30
d31
d32
d33
d34
d35
d36
d37
d38
d39
d40
d41
d42
d43
d44
d45
d46
d47
d48
d49
x0
x1
x2
x3
x4
x5
x6
x7
x8
x9
x10
x11
x12
x13
x14
x15
x16
x17
x18
x19
x20
x21
x22
x23
x24
x25
x26
x27
x28
x29
x30
x31
x32
x33
x34
x35
x36
x37
x38
x39
x40
x41
x42
x43
x44
x45
x46
x47
x48
x49
x50
x51
x52
x53
x54
x55
x56
x57
x58
x59
x60
x61
x62
x63
x64
x65
x66
x67
x68
x69
x70
x71
x72
x73
x74
x75
x76
x77
x78
x79
x80
x81
x82
x83
x84
x85
x86
x87
x88
x89
x90
x91
x92
x93
x94
x95
x96
x97
x98
x99
x100
x101
x102
x103
x104
x105
x106
x107
x108
x109
x110
x111
x112
x113
x114
x115
x116
x117
x118
x119
x120
x121
x122
x123
x124
x125
x126
x127
x128
x129
x130
x131
x132
x133
x134
x135
End